General
  SYSTEM  = TiO2
  ENCUT   = 500
  PREC    = Accurate
  LREAL   = Auto
  ISPIN   = 1
  ISTART  = 0
  ICHARG  = 2
  NCORE   = 8
  NSIM    = 16    # RMM-DIIS PAR
  KPAR    = 4

Electronic relaxation
  ISMEAR  = 0
  SIGMA   = 0.05
  ALGO    = Normal
  NELMIN  = 4
  NELM    = 200
  EDIFF   = 1E-6
  
Molecular Dynamics
  ISYM    = 0     # turn off symmetry for MD
  IBRION  = 0     # turn on MD
  NSW     = 4000  # No. of ionic steps
  POTIM   = 1     # time step 1.0 fs
  # MDALGO  = 2     # Nose-Hoover
  # ISIF    = 2
  SMASS   = -1    # velocity rescaling 
  NBLOCK  = 20    # velocity rescaled
                  # every NBLOCK step
  TEBEG   = 200   # start temperature
  TEEND   = 500   # end temperature
  
Writing Flag
  NWRITE  = 1     # make OUTCAR small
  LWAVE   = .FALSE.
  LCHARG  = .FALSE.
  MAGMOM = 1 1 1 1 1 1
