STEP1
Electronic Relaxation      
NELM   =  90           
NELMIN =  6            
EDIFF  =  1E-08        
 
Ionic Relaxation
NSW    =  100          
IBRION =  2            
ISIF   =  2            
EDIFFG = -0.01
