STEP2
Electronic relaxation
ALGO    = Normal
NELMIN  = 4
NELM    = 120
EDIFF   = 1E-6
  
Molecular Dynamics
ISYM    = 0    
IBRION  = 0    
NSW     = 1000  
POTIM   = 1    
SMASS   = 0   
NBLOCK  = 4                 
TEBEG   = 300   
TEEND   = 300   
