STEP3
Electronic relaxation
ALGO    = Normal
NELMIN  = 4
NELM    = 120
EDIFF   = 1E-6
  
Molecular Dynamics
ISYM    = 0     
IBRION  = 0     
NSW     = 5000  
POTIM   = 1     
SMASS   = -3     
NBLOCK  = 1     
