Static Calculation
LORBIT =  11           
NEDOS  =  2001        
NELM   =  120          
EDIFF  =  1E-06      
